c description: Graph pigeonhole principle formula on fast_gnp_random_graph(20,5,0.9)
c generator: CNFgen (0.9.0)
c copyright: (C) 2012-2020 Massimo Lauria <massimo.lauria@uniroma1.it>
c url: https://massimolauria.net/cnfgen
c
p cnf 94 858
1 2 3 4 5 0
6 7 8 9 10 0
11 12 13 14 15 0
16 17 18 19 20 0
21 22 23 24 0
25 26 27 28 0
29 30 31 32 33 0
34 35 36 37 0
38 39 40 41 42 0
43 44 45 46 0
47 48 49 50 51 0
52 53 54 55 56 0
57 58 59 60 61 0
62 63 64 65 66 0
67 68 69 70 71 0
72 73 74 75 76 0
77 78 79 80 0
81 82 83 84 85 0
86 87 88 89 0
90 91 92 93 94 0
-1 -6 0
-1 -11 0
-1 -16 0
-1 -25 0
-1 -29 0
-1 -38 0
-1 -43 0
-1 -47 0
-1 -52 0
-1 -57 0
-1 -62 0
-1 -67 0
-1 -72 0
-1 -77 0
-1 -81 0
-1 -86 0
-1 -90 0
-6 -11 0
-6 -16 0
-6 -25 0
-6 -29 0
-6 -38 0
-6 -43 0
-6 -47 0
-6 -52 0
-6 -57 0
-6 -62 0
-6 -67 0
-6 -72 0
-6 -77 0
-6 -81 0
-6 -86 0
-6 -90 0
-11 -16 0
-11 -25 0
-11 -29 0
-11 -38 0
-11 -43 0
-11 -47 0
-11 -52 0
-11 -57 0
-11 -62 0
-11 -67 0
-11 -72 0
-11 -77 0
-11 -81 0
-11 -86 0
-11 -90 0
-16 -25 0
-16 -29 0
-16 -38 0
-16 -43 0
-16 -47 0
-16 -52 0
-16 -57 0
-16 -62 0
-16 -67 0
-16 -72 0
-16 -77 0
-16 -81 0
-16 -86 0
-16 -90 0
-25 -29 0
-25 -38 0
-25 -43 0
-25 -47 0
-25 -52 0
-25 -57 0
-25 -62 0
-25 -67 0
-25 -72 0
-25 -77 0
-25 -81 0
-25 -86 0
-25 -90 0
-29 -38 0
-29 -43 0
-29 -47 0
-29 -52 0
-29 -57 0
-29 -62 0
-29 -67 0
-29 -72 0
-29 -77 0
-29 -81 0
-29 -86 0
-29 -90 0
-38 -43 0
-38 -47 0
-38 -52 0
-38 -57 0
-38 -62 0
-38 -67 0
-38 -72 0
-38 -77 0
-38 -81 0
-38 -86 0
-38 -90 0
-43 -47 0
-43 -52 0
-43 -57 0
-43 -62 0
-43 -67 0
-43 -72 0
-43 -77 0
-43 -81 0
-43 -86 0
-43 -90 0
-47 -52 0
-47 -57 0
-47 -62 0
-47 -67 0
-47 -72 0
-47 -77 0
-47 -81 0
-47 -86 0
-47 -90 0
-52 -57 0
-52 -62 0
-52 -67 0
-52 -72 0
-52 -77 0
-52 -81 0
-52 -86 0
-52 -90 0
-57 -62 0
-57 -67 0
-57 -72 0
-57 -77 0
-57 -81 0
-57 -86 0
-57 -90 0
-62 -67 0
-62 -72 0
-62 -77 0
-62 -81 0
-62 -86 0
-62 -90 0
-67 -72 0
-67 -77 0
-67 -81 0
-67 -86 0
-67 -90 0
-72 -77 0
-72 -81 0
-72 -86 0
-72 -90 0
-77 -81 0
-77 -86 0
-77 -90 0
-81 -86 0
-81 -90 0
-86 -90 0
-2 -7 0
-2 -12 0
-2 -17 0
-2 -21 0
-2 -30 0
-2 -34 0
-2 -39 0
-2 -44 0
-2 -48 0
-2 -53 0
-2 -58 0
-2 -63 0
-2 -68 0
-2 -73 0
-2 -78 0
-2 -82 0
-2 -87 0
-2 -91 0
-7 -12 0
-7 -17 0
-7 -21 0
-7 -30 0
-7 -34 0
-7 -39 0
-7 -44 0
-7 -48 0
-7 -53 0
-7 -58 0
-7 -63 0
-7 -68 0
-7 -73 0
-7 -78 0
-7 -82 0
-7 -87 0
-7 -91 0
-12 -17 0
-12 -21 0
-12 -30 0
-12 -34 0
-12 -39 0
-12 -44 0
-12 -48 0
-12 -53 0
-12 -58 0
-12 -63 0
-12 -68 0
-12 -73 0
-12 -78 0
-12 -82 0
-12 -87 0
-12 -91 0
-17 -21 0
-17 -30 0
-17 -34 0
-17 -39 0
-17 -44 0
-17 -48 0
-17 -53 0
-17 -58 0
-17 -63 0
-17 -68 0
-17 -73 0
-17 -78 0
-17 -82 0
-17 -87 0
-17 -91 0
-21 -30 0
-21 -34 0
-21 -39 0
-21 -44 0
-21 -48 0
-21 -53 0
-21 -58 0
-21 -63 0
-21 -68 0
-21 -73 0
-21 -78 0
-21 -82 0
-21 -87 0
-21 -91 0
-30 -34 0
-30 -39 0
-30 -44 0
-30 -48 0
-30 -53 0
-30 -58 0
-30 -63 0
-30 -68 0
-30 -73 0
-30 -78 0
-30 -82 0
-30 -87 0
-30 -91 0
-34 -39 0
-34 -44 0
-34 -48 0
-34 -53 0
-34 -58 0
-34 -63 0
-34 -68 0
-34 -73 0
-34 -78 0
-34 -82 0
-34 -87 0
-34 -91 0
-39 -44 0
-39 -48 0
-39 -53 0
-39 -58 0
-39 -63 0
-39 -68 0
-39 -73 0
-39 -78 0
-39 -82 0
-39 -87 0
-39 -91 0
-44 -48 0
-44 -53 0
-44 -58 0
-44 -63 0
-44 -68 0
-44 -73 0
-44 -78 0
-44 -82 0
-44 -87 0
-44 -91 0
-48 -53 0
-48 -58 0
-48 -63 0
-48 -68 0
-48 -73 0
-48 -78 0
-48 -82 0
-48 -87 0
-48 -91 0
-53 -58 0
-53 -63 0
-53 -68 0
-53 -73 0
-53 -78 0
-53 -82 0
-53 -87 0
-53 -91 0
-58 -63 0
-58 -68 0
-58 -73 0
-58 -78 0
-58 -82 0
-58 -87 0
-58 -91 0
-63 -68 0
-63 -73 0
-63 -78 0
-63 -82 0
-63 -87 0
-63 -91 0
-68 -73 0
-68 -78 0
-68 -82 0
-68 -87 0
-68 -91 0
-73 -78 0
-73 -82 0
-73 -87 0
-73 -91 0
-78 -82 0
-78 -87 0
-78 -91 0
-82 -87 0
-82 -91 0
-87 -91 0
-3 -8 0
-3 -13 0
-3 -18 0
-3 -22 0
-3 -26 0
-3 -31 0
-3 -35 0
-3 -40 0
-3 -45 0
-3 -49 0
-3 -54 0
-3 -59 0
-3 -64 0
-3 -69 0
-3 -74 0
-3 -79 0
-3 -83 0
-3 -92 0
-8 -13 0
-8 -18 0
-8 -22 0
-8 -26 0
-8 -31 0
-8 -35 0
-8 -40 0
-8 -45 0
-8 -49 0
-8 -54 0
-8 -59 0
-8 -64 0
-8 -69 0
-8 -74 0
-8 -79 0
-8 -83 0
-8 -92 0
-13 -18 0
-13 -22 0
-13 -26 0
-13 -31 0
-13 -35 0
-13 -40 0
-13 -45 0
-13 -49 0
-13 -54 0
-13 -59 0
-13 -64 0
-13 -69 0
-13 -74 0
-13 -79 0
-13 -83 0
-13 -92 0
-18 -22 0
-18 -26 0
-18 -31 0
-18 -35 0
-18 -40 0
-18 -45 0
-18 -49 0
-18 -54 0
-18 -59 0
-18 -64 0
-18 -69 0
-18 -74 0
-18 -79 0
-18 -83 0
-18 -92 0
-22 -26 0
-22 -31 0
-22 -35 0
-22 -40 0
-22 -45 0
-22 -49 0
-22 -54 0
-22 -59 0
-22 -64 0
-22 -69 0
-22 -74 0
-22 -79 0
-22 -83 0
-22 -92 0
-26 -31 0
-26 -35 0
-26 -40 0
-26 -45 0
-26 -49 0
-26 -54 0
-26 -59 0
-26 -64 0
-26 -69 0
-26 -74 0
-26 -79 0
-26 -83 0
-26 -92 0
-31 -35 0
-31 -40 0
-31 -45 0
-31 -49 0
-31 -54 0
-31 -59 0
-31 -64 0
-31 -69 0
-31 -74 0
-31 -79 0
-31 -83 0
-31 -92 0
-35 -40 0
-35 -45 0
-35 -49 0
-35 -54 0
-35 -59 0
-35 -64 0
-35 -69 0
-35 -74 0
-35 -79 0
-35 -83 0
-35 -92 0
-40 -45 0
-40 -49 0
-40 -54 0
-40 -59 0
-40 -64 0
-40 -69 0
-40 -74 0
-40 -79 0
-40 -83 0
-40 -92 0
-45 -49 0
-45 -54 0
-45 -59 0
-45 -64 0
-45 -69 0
-45 -74 0
-45 -79 0
-45 -83 0
-45 -92 0
-49 -54 0
-49 -59 0
-49 -64 0
-49 -69 0
-49 -74 0
-49 -79 0
-49 -83 0
-49 -92 0
-54 -59 0
-54 -64 0
-54 -69 0
-54 -74 0
-54 -79 0
-54 -83 0
-54 -92 0
-59 -64 0
-59 -69 0
-59 -74 0
-59 -79 0
-59 -83 0
-59 -92 0
-64 -69 0
-64 -74 0
-64 -79 0
-64 -83 0
-64 -92 0
-69 -74 0
-69 -79 0
-69 -83 0
-69 -92 0
-74 -79 0
-74 -83 0
-74 -92 0
-79 -83 0
-79 -92 0
-83 -92 0
-4 -9 0
-4 -14 0
-4 -19 0
-4 -23 0
-4 -27 0
-4 -32 0
-4 -36 0
-4 -41 0
-4 -50 0
-4 -55 0
-4 -60 0
-4 -65 0
-4 -70 0
-4 -75 0
-4 -84 0
-4 -88 0
-4 -93 0
-9 -14 0
-9 -19 0
-9 -23 0
-9 -27 0
-9 -32 0
-9 -36 0
-9 -41 0
-9 -50 0
-9 -55 0
-9 -60 0
-9 -65 0
-9 -70 0
-9 -75 0
-9 -84 0
-9 -88 0
-9 -93 0
-14 -19 0
-14 -23 0
-14 -27 0
-14 -32 0
-14 -36 0
-14 -41 0
-14 -50 0
-14 -55 0
-14 -60 0
-14 -65 0
-14 -70 0
-14 -75 0
-14 -84 0
-14 -88 0
-14 -93 0
-19 -23 0
-19 -27 0
-19 -32 0
-19 -36 0
-19 -41 0
-19 -50 0
-19 -55 0
-19 -60 0
-19 -65 0
-19 -70 0
-19 -75 0
-19 -84 0
-19 -88 0
-19 -93 0
-23 -27 0
-23 -32 0
-23 -36 0
-23 -41 0
-23 -50 0
-23 -55 0
-23 -60 0
-23 -65 0
-23 -70 0
-23 -75 0
-23 -84 0
-23 -88 0
-23 -93 0
-27 -32 0
-27 -36 0
-27 -41 0
-27 -50 0
-27 -55 0
-27 -60 0
-27 -65 0
-27 -70 0
-27 -75 0
-27 -84 0
-27 -88 0
-27 -93 0
-32 -36 0
-32 -41 0
-32 -50 0
-32 -55 0
-32 -60 0
-32 -65 0
-32 -70 0
-32 -75 0
-32 -84 0
-32 -88 0
-32 -93 0
-36 -41 0
-36 -50 0
-36 -55 0
-36 -60 0
-36 -65 0
-36 -70 0
-36 -75 0
-36 -84 0
-36 -88 0
-36 -93 0
-41 -50 0
-41 -55 0
-41 -60 0
-41 -65 0
-41 -70 0
-41 -75 0
-41 -84 0
-41 -88 0
-41 -93 0
-50 -55 0
-50 -60 0
-50 -65 0
-50 -70 0
-50 -75 0
-50 -84 0
-50 -88 0
-50 -93 0
-55 -60 0
-55 -65 0
-55 -70 0
-55 -75 0
-55 -84 0
-55 -88 0
-55 -93 0
-60 -65 0
-60 -70 0
-60 -75 0
-60 -84 0
-60 -88 0
-60 -93 0
-65 -70 0
-65 -75 0
-65 -84 0
-65 -88 0
-65 -93 0
-70 -75 0
-70 -84 0
-70 -88 0
-70 -93 0
-75 -84 0
-75 -88 0
-75 -93 0
-84 -88 0
-84 -93 0
-88 -93 0
-5 -10 0
-5 -15 0
-5 -20 0
-5 -24 0
-5 -28 0
-5 -33 0
-5 -37 0
-5 -42 0
-5 -46 0
-5 -51 0
-5 -56 0
-5 -61 0
-5 -66 0
-5 -71 0
-5 -76 0
-5 -80 0
-5 -85 0
-5 -89 0
-5 -94 0
-10 -15 0
-10 -20 0
-10 -24 0
-10 -28 0
-10 -33 0
-10 -37 0
-10 -42 0
-10 -46 0
-10 -51 0
-10 -56 0
-10 -61 0
-10 -66 0
-10 -71 0
-10 -76 0
-10 -80 0
-10 -85 0
-10 -89 0
-10 -94 0
-15 -20 0
-15 -24 0
-15 -28 0
-15 -33 0
-15 -37 0
-15 -42 0
-15 -46 0
-15 -51 0
-15 -56 0
-15 -61 0
-15 -66 0
-15 -71 0
-15 -76 0
-15 -80 0
-15 -85 0
-15 -89 0
-15 -94 0
-20 -24 0
-20 -28 0
-20 -33 0
-20 -37 0
-20 -42 0
-20 -46 0
-20 -51 0
-20 -56 0
-20 -61 0
-20 -66 0
-20 -71 0
-20 -76 0
-20 -80 0
-20 -85 0
-20 -89 0
-20 -94 0
-24 -28 0
-24 -33 0
-24 -37 0
-24 -42 0
-24 -46 0
-24 -51 0
-24 -56 0
-24 -61 0
-24 -66 0
-24 -71 0
-24 -76 0
-24 -80 0
-24 -85 0
-24 -89 0
-24 -94 0
-28 -33 0
-28 -37 0
-28 -42 0
-28 -46 0
-28 -51 0
-28 -56 0
-28 -61 0
-28 -66 0
-28 -71 0
-28 -76 0
-28 -80 0
-28 -85 0
-28 -89 0
-28 -94 0
-33 -37 0
-33 -42 0
-33 -46 0
-33 -51 0
-33 -56 0
-33 -61 0
-33 -66 0
-33 -71 0
-33 -76 0
-33 -80 0
-33 -85 0
-33 -89 0
-33 -94 0
-37 -42 0
-37 -46 0
-37 -51 0
-37 -56 0
-37 -61 0
-37 -66 0
-37 -71 0
-37 -76 0
-37 -80 0
-37 -85 0
-37 -89 0
-37 -94 0
-42 -46 0
-42 -51 0
-42 -56 0
-42 -61 0
-42 -66 0
-42 -71 0
-42 -76 0
-42 -80 0
-42 -85 0
-42 -89 0
-42 -94 0
-46 -51 0
-46 -56 0
-46 -61 0
-46 -66 0
-46 -71 0
-46 -76 0
-46 -80 0
-46 -85 0
-46 -89 0
-46 -94 0
-51 -56 0
-51 -61 0
-51 -66 0
-51 -71 0
-51 -76 0
-51 -80 0
-51 -85 0
-51 -89 0
-51 -94 0
-56 -61 0
-56 -66 0
-56 -71 0
-56 -76 0
-56 -80 0
-56 -85 0
-56 -89 0
-56 -94 0
-61 -66 0
-61 -71 0
-61 -76 0
-61 -80 0
-61 -85 0
-61 -89 0
-61 -94 0
-66 -71 0
-66 -76 0
-66 -80 0
-66 -85 0
-66 -89 0
-66 -94 0
-71 -76 0
-71 -80 0
-71 -85 0
-71 -89 0
-71 -94 0
-76 -80 0
-76 -85 0
-76 -89 0
-76 -94 0
-80 -85 0
-80 -89 0
-80 -94 0
-85 -89 0
-85 -94 0
-89 -94 0